\ Model idol-model
\ LP format - for model browsing. Use MPS format to capture full model detail.
\ Signature: 0xca292d104dc7ee3
Minimize
  19 y0 + 87 y1 + 97 y2 + 22 y3 + 47 y4 + 22 y5 + 30 y6 + 5 y7 + 32 y8
   + 54 y9 + 75 y10 + 70 y11 + 7 y12 + 76 y13 + 31 y14 + 61 y15 + 98 y16
   + 27 y17 + 39 y18 + 91 y19 + 50 y20 + 10 y21 + 38 y22 + 25 y23 + 43 y24
   + 37 y25 + 77 y26 + 18 y27 + 99 y28 + 9 y29 + 19 y30 + 97 y31 + 75 y32
   + 26 y33 + 41 y34 + 84 y35 + 48 y36 + 75 y37 + 78 y38 + 41 y39
Subject To
 KL: 30 x0 + 80 x1 + 50 x2 + 87 x3 + 16 x4 + 51 x5 + 80 x6 + 8 x7 + 95 x8
   + 18 x9 + 78 x10 + 99 x11 + 83 x12 + 32 x13 + 11 x14 + 52 x15 + 92 x16
   + 30 x17 + 90 x18 + 15 x19 + 92 x20 + 4 x21 + 32 x22 + 91 x23 + 81 x24
   + 91 x25 + 85 x26 + 75 x27 + 69 x28 + 18 x29 + 44 x30 + 16 x31 + 72 x32
   + 67 x33 + 26 x34 + 7 x35 + 97 x36 + 81 x37 + 55 x38 + 55 x39 <= 1640
 KF: y0 + 96 y1 + 67 y2 + 90 y3 + 13 y4 + 74 y5 + 22 y6 + 86 y7 + 23 y8
   + 63 y9 + 89 y10 + 25 y11 + 100 y12 + 76 y13 + 23 y14 + 56 y15 + 5 y16
   + 47 y17 + 45 y18 + 39 y19 + 47 y20 + 11 y21 + 100 y22 + 27 y23 + 60 y24
   + 76 y25 + 75 y26 + 37 y27 + y28 + 81 y29 + 51 y30 + 30 y31 + 40 y32
   + 48 y33 + 68 y34 + 31 y35 + 13 y36 + 81 y37 + 67 y38 + 12 y39 <= 1633
 I0: x0 + y0 <= 1
 I1: x1 + y1 <= 1
 I2: x2 + y2 <= 1
 I3: x3 + y3 <= 1
 I4: x4 + y4 <= 1
 I5: x5 + y5 <= 1
 I6: x6 + y6 <= 1
 I7: x7 + y7 <= 1
 I8: x8 + y8 <= 1
 I9: x9 + y9 <= 1
 I10: x10 + y10 <= 1
 I11: x11 + y11 <= 1
 I12: x12 + y12 <= 1
 I13: x13 + y13 <= 1
 I14: x14 + y14 <= 1
 I15: x15 + y15 <= 1
 I16: x16 + y16 <= 1
 I17: x17 + y17 <= 1
 I18: x18 + y18 <= 1
 I19: x19 + y19 <= 1
 I20: x20 + y20 <= 1
 I21: x21 + y21 <= 1
 I22: x22 + y22 <= 1
 I23: x23 + y23 <= 1
 I24: x24 + y24 <= 1
 I25: x25 + y25 <= 1
 I26: x26 + y26 <= 1
 I27: x27 + y27 <= 1
 I28: x28 + y28 <= 1
 I29: x29 + y29 <= 1
 I30: x30 + y30 <= 1
 I31: x31 + y31 <= 1
 I32: x32 + y32 <= 1
 I33: x33 + y33 <= 1
 I34: x34 + y34 <= 1
 I35: x35 + y35 <= 1
 I36: x36 + y36 <= 1
 I37: x37 + y37 <= 1
 I38: x38 + y38 <= 1
 I39: x39 + y39 <= 1
 c_162: - 19 y0 - 87 y1 - 97 y2 - 22 y3 - 47 y4 - 22 y5 - 30 y6 - 5 y7
   - 32 y8 - 54 y9 - 75 y10 - 70 y11 - 7 y12 - 76 y13 - 31 y14 - 61 y15
   - 98 y16 - 27 y17 - 39 y18 - 91 y19 - 50 y20 - 10 y21 - 38 y22 - 25 y23
   - 43 y24 - 37 y25 - 77 y26 - 18 y27 - 99 y28 - 9 y29 - 19 y30 - 97 y31
   - 75 y32 - 26 y33 - 41 y34 - 84 y35 - 48 y36 - 75 y37 - 78 y38 - 41 y39
   <= 0
Bounds
Binaries
 x0 x1 x2 x3 x4 x5 x6 x7 x8 x9 x10 x11 x12 x13 x14 x15 x16 x17 x18 x19 x20
 x21 x22 x23 x24 x25 x26 x27 x28 x29 x30 x31 x32 x33 x34 x35 x36 x37 x38
 x39 y0 y1 y2 y3 y4 y5 y6 y7 y8 y9 y10 y11 y12 y13 y14 y15 y16 y17 y18 y19
 y20 y21 y22 y23 y24 y25 y26 y27 y28 y29 y30 y31 y32 y33 y34 y35 y36 y37
 y38 y39
End
